(set-option :produce-models true)
(set-logic QF_LRA)
(set-info :notes | Strip-packing problem.|)
(declare-fun x0 () Real)
(declare-fun y0 () Real)
(declare-fun x1 () Real)
(declare-fun y1 () Real)
(declare-fun x2 () Real)
(declare-fun y2 () Real)
(declare-fun x3 () Real)
(declare-fun y3 () Real)
(declare-fun x4 () Real)
(declare-fun y4 () Real)
(declare-fun x5 () Real)
(declare-fun y5 () Real)
(declare-fun x6 () Real)
(declare-fun y6 () Real)
(declare-fun x7 () Real)
(declare-fun y7 () Real)
(declare-fun x8 () Real)
(declare-fun y8 () Real)
(declare-fun x9 () Real)
(declare-fun y9 () Real)
(declare-fun x10 () Real)
(declare-fun y10 () Real)
(declare-fun x11 () Real)
(declare-fun y11 () Real)
(declare-fun x12 () Real)
(declare-fun y12 () Real)
(declare-fun x13 () Real)
(declare-fun y13 () Real)
(declare-fun x14 () Real)
(declare-fun y14 () Real)
(declare-fun z () Real)
(declare-fun c () Real)
(assert (and (= c z) (and (>= x0 0) 
(and (>= y0 0) 
(and (>= x1 0) 
(and (>= y1 0) 
(and (>= x2 0) 
(and (>= y2 0) 
(and (>= x3 0) 
(and (>= y3 0) 
(and (>= x4 0) 
(and (>= y4 0) 
(and (>= x5 0) 
(and (>= y5 0) 
(and (>= x6 0) 
(and (>= y6 0) 
(and (>= x7 0) 
(and (>= y7 0) 
(and (>= x8 0) 
(and (>= y8 0) 
(and (>= x9 0) 
(and (>= y9 0) 
(and (>= x10 0) 
(and (>= y10 0) 
(and (>= x11 0) 
(and (>= y11 0) 
(and (>= x12 0) 
(and (>= y12 0) 
(and (>= x13 0) 
(and (>= y13 0) 
(and (>= x14 0) 
(and (>= y14 0) 
(and (>= z 0) 
(and (>= c 0) 
(and (<= (+ x0 0.9716553946) z) 
(and (<= 0.7417978344 y0) 
(and (<= y0 1.9364916731) 
(and (<= x0 (- 3.4743294058 0.9716553946)) 
(and (>= x0 0) 
(and (<= (+ x1 0.4139356266) z) 
(and (<= 0.6397788943 y1) 
(and (<= y1 1.9364916731) 
(and (<= x1 (- 3.4743294058 0.4139356266)) 
(and (>= x1 0) 
(and (<= (+ x2 0.0736425752) z) 
(and (<= 0.6026212458 y2) 
(and (<= y2 1.9364916731) 
(and (<= x2 (- 3.4743294058 0.0736425752)) 
(and (>= x2 0) 
(and (<= (+ x3 0.0032820532) z) 
(and (<= 0.5961060696 y3) 
(and (<= y3 1.9364916731) 
(and (<= x3 (- 3.4743294058 0.0032820532)) 
(and (>= x3 0) 
(and (<= (+ x4 0.7564822373) z) 
(and (<= 0.4977910105 y4) 
(and (<= y4 1.9364916731) 
(and (<= x4 (- 3.4743294058 0.7564822373)) 
(and (>= x4 0) 
(and (<= (+ x5 0.7686004875) z) 
(and (<= 0.4476713594 y5) 
(and (<= y5 1.9364916731) 
(and (<= x5 (- 3.4743294058 0.7686004875)) 
(and (>= x5 0) 
(and (<= (+ x6 0.8223684628) z) 
(and (<= 0.3841594137 y6) 
(and (<= y6 1.9364916731) 
(and (<= x6 (- 3.4743294058 0.8223684628)) 
(and (>= x6 0) 
(and (<= (+ x7 0.4518848917) z) 
(and (<= 0.3710766186 y7) 
(and (<= y7 1.9364916731) 
(and (<= x7 (- 3.4743294058 0.4518848917)) 
(and (>= x7 0) 
(and (<= (+ x8 0.032132108) z) 
(and (<= 0.2685280837 y8) 
(and (<= y8 1.9364916731) 
(and (<= x8 (- 3.4743294058 0.032132108)) 
(and (>= x8 0) 
(and (<= (+ x9 0.806709336) z) 
(and (<= 0.2397120295 y9) 
(and (<= y9 1.9364916731) 
(and (<= x9 (- 3.4743294058 0.806709336)) 
(and (>= x9 0) 
(and (<= (+ x10 0.0735748048) z) 
(and (<= 0.2378823113 y10) 
(and (<= y10 1.9364916731) 
(and (<= x10 (- 3.4743294058 0.0735748048)) 
(and (>= x10 0) 
(and (<= (+ x11 0.6327906068) z) 
(and (<= 0.2143210784 y11) 
(and (<= y11 1.9364916731) 
(and (<= x11 (- 3.4743294058 0.6327906068)) 
(and (>= x11 0) 
(and (<= (+ x12 0.5222358951) z) 
(and (<= 0.1854036082 y12) 
(and (<= y12 1.9364916731) 
(and (<= x12 (- 3.4743294058 0.5222358951)) 
(and (>= x12 0) 
(and (<= (+ x13 0.8380624857) z) 
(and (<= 0.1787777842 y13) 
(and (<= y13 1.9364916731) 
(and (<= x13 (- 3.4743294058 0.8380624857)) 
(and (>= x13 0) 
(and (<= (+ x14 0.0161547884) z) 
(and (<= 0.1474266789 y14) 
(and (<= y14 1.9364916731) 
(and (<= x14 (- 3.4743294058 0.0161547884)) 
(and (>= x14 0) 
(and (<= c 3.4743294058) 
(and (or (<= (+ x0 0.9716553946) x1) (or (<= (+ x1 0.4139356266) x0) (or (>= (- y0 0.7417978344) y1) (or (>= (- y1 0.6397788943) y0))))) 
(and (or (<= (+ x0 0.9716553946) x2) (or (<= (+ x2 0.0736425752) x0) (or (>= (- y0 0.7417978344) y2) (or (>= (- y2 0.6026212458) y0))))) 
(and (or (<= (+ x0 0.9716553946) x3) (or (<= (+ x3 0.0032820532) x0) (or (>= (- y0 0.7417978344) y3) (or (>= (- y3 0.5961060696) y0))))) 
(and (or (<= (+ x0 0.9716553946) x4) (or (<= (+ x4 0.7564822373) x0) (or (>= (- y0 0.7417978344) y4) (or (>= (- y4 0.4977910105) y0))))) 
(and (or (<= (+ x0 0.9716553946) x5) (or (<= (+ x5 0.7686004875) x0) (or (>= (- y0 0.7417978344) y5) (or (>= (- y5 0.4476713594) y0))))) 
(and (or (<= (+ x0 0.9716553946) x6) (or (<= (+ x6 0.8223684628) x0) (or (>= (- y0 0.7417978344) y6) (or (>= (- y6 0.3841594137) y0))))) 
(and (or (<= (+ x0 0.9716553946) x7) (or (<= (+ x7 0.4518848917) x0) (or (>= (- y0 0.7417978344) y7) (or (>= (- y7 0.3710766186) y0))))) 
(and (or (<= (+ x0 0.9716553946) x8) (or (<= (+ x8 0.032132108) x0) (or (>= (- y0 0.7417978344) y8) (or (>= (- y8 0.2685280837) y0))))) 
(and (or (<= (+ x0 0.9716553946) x9) (or (<= (+ x9 0.806709336) x0) (or (>= (- y0 0.7417978344) y9) (or (>= (- y9 0.2397120295) y0))))) 
(and (or (<= (+ x0 0.9716553946) x10) (or (<= (+ x10 0.0735748048) x0) (or (>= (- y0 0.7417978344) y10) (or (>= (- y10 0.2378823113) y0))))) 
(and (or (<= (+ x0 0.9716553946) x11) (or (<= (+ x11 0.6327906068) x0) (or (>= (- y0 0.7417978344) y11) (or (>= (- y11 0.2143210784) y0))))) 
(and (or (<= (+ x0 0.9716553946) x12) (or (<= (+ x12 0.5222358951) x0) (or (>= (- y0 0.7417978344) y12) (or (>= (- y12 0.1854036082) y0))))) 
(and (or (<= (+ x0 0.9716553946) x13) (or (<= (+ x13 0.8380624857) x0) (or (>= (- y0 0.7417978344) y13) (or (>= (- y13 0.1787777842) y0))))) 
(and (or (<= (+ x0 0.9716553946) x14) (or (<= (+ x14 0.0161547884) x0) (or (>= (- y0 0.7417978344) y14) (or (>= (- y14 0.1474266789) y0))))) 
(and (or (<= (+ x1 0.4139356266) x2) (or (<= (+ x2 0.0736425752) x1) (or (>= (- y1 0.6397788943) y2) (or (>= (- y2 0.6026212458) y1))))) 
(and (or (<= (+ x1 0.4139356266) x3) (or (<= (+ x3 0.0032820532) x1) (or (>= (- y1 0.6397788943) y3) (or (>= (- y3 0.5961060696) y1))))) 
(and (or (<= (+ x1 0.4139356266) x4) (or (<= (+ x4 0.7564822373) x1) (or (>= (- y1 0.6397788943) y4) (or (>= (- y4 0.4977910105) y1))))) 
(and (or (<= (+ x1 0.4139356266) x5) (or (<= (+ x5 0.7686004875) x1) (or (>= (- y1 0.6397788943) y5) (or (>= (- y5 0.4476713594) y1))))) 
(and (or (<= (+ x1 0.4139356266) x6) (or (<= (+ x6 0.8223684628) x1) (or (>= (- y1 0.6397788943) y6) (or (>= (- y6 0.3841594137) y1))))) 
(and (or (<= (+ x1 0.4139356266) x7) (or (<= (+ x7 0.4518848917) x1) (or (>= (- y1 0.6397788943) y7) (or (>= (- y7 0.3710766186) y1))))) 
(and (or (<= (+ x1 0.4139356266) x8) (or (<= (+ x8 0.032132108) x1) (or (>= (- y1 0.6397788943) y8) (or (>= (- y8 0.2685280837) y1))))) 
(and (or (<= (+ x1 0.4139356266) x9) (or (<= (+ x9 0.806709336) x1) (or (>= (- y1 0.6397788943) y9) (or (>= (- y9 0.2397120295) y1))))) 
(and (or (<= (+ x1 0.4139356266) x10) (or (<= (+ x10 0.0735748048) x1) (or (>= (- y1 0.6397788943) y10) (or (>= (- y10 0.2378823113) y1))))) 
(and (or (<= (+ x1 0.4139356266) x11) (or (<= (+ x11 0.6327906068) x1) (or (>= (- y1 0.6397788943) y11) (or (>= (- y11 0.2143210784) y1))))) 
(and (or (<= (+ x1 0.4139356266) x12) (or (<= (+ x12 0.5222358951) x1) (or (>= (- y1 0.6397788943) y12) (or (>= (- y12 0.1854036082) y1))))) 
(and (or (<= (+ x1 0.4139356266) x13) (or (<= (+ x13 0.8380624857) x1) (or (>= (- y1 0.6397788943) y13) (or (>= (- y13 0.1787777842) y1))))) 
(and (or (<= (+ x1 0.4139356266) x14) (or (<= (+ x14 0.0161547884) x1) (or (>= (- y1 0.6397788943) y14) (or (>= (- y14 0.1474266789) y1))))) 
(and (or (<= (+ x2 0.0736425752) x3) (or (<= (+ x3 0.0032820532) x2) (or (>= (- y2 0.6026212458) y3) (or (>= (- y3 0.5961060696) y2))))) 
(and (or (<= (+ x2 0.0736425752) x4) (or (<= (+ x4 0.7564822373) x2) (or (>= (- y2 0.6026212458) y4) (or (>= (- y4 0.4977910105) y2))))) 
(and (or (<= (+ x2 0.0736425752) x5) (or (<= (+ x5 0.7686004875) x2) (or (>= (- y2 0.6026212458) y5) (or (>= (- y5 0.4476713594) y2))))) 
(and (or (<= (+ x2 0.0736425752) x6) (or (<= (+ x6 0.8223684628) x2) (or (>= (- y2 0.6026212458) y6) (or (>= (- y6 0.3841594137) y2))))) 
(and (or (<= (+ x2 0.0736425752) x7) (or (<= (+ x7 0.4518848917) x2) (or (>= (- y2 0.6026212458) y7) (or (>= (- y7 0.3710766186) y2))))) 
(and (or (<= (+ x2 0.0736425752) x8) (or (<= (+ x8 0.032132108) x2) (or (>= (- y2 0.6026212458) y8) (or (>= (- y8 0.2685280837) y2))))) 
(and (or (<= (+ x2 0.0736425752) x9) (or (<= (+ x9 0.806709336) x2) (or (>= (- y2 0.6026212458) y9) (or (>= (- y9 0.2397120295) y2))))) 
(and (or (<= (+ x2 0.0736425752) x10) (or (<= (+ x10 0.0735748048) x2) (or (>= (- y2 0.6026212458) y10) (or (>= (- y10 0.2378823113) y2))))) 
(and (or (<= (+ x2 0.0736425752) x11) (or (<= (+ x11 0.6327906068) x2) (or (>= (- y2 0.6026212458) y11) (or (>= (- y11 0.2143210784) y2))))) 
(and (or (<= (+ x2 0.0736425752) x12) (or (<= (+ x12 0.5222358951) x2) (or (>= (- y2 0.6026212458) y12) (or (>= (- y12 0.1854036082) y2))))) 
(and (or (<= (+ x2 0.0736425752) x13) (or (<= (+ x13 0.8380624857) x2) (or (>= (- y2 0.6026212458) y13) (or (>= (- y13 0.1787777842) y2))))) 
(and (or (<= (+ x2 0.0736425752) x14) (or (<= (+ x14 0.0161547884) x2) (or (>= (- y2 0.6026212458) y14) (or (>= (- y14 0.1474266789) y2))))) 
(and (or (<= (+ x3 0.0032820532) x4) (or (<= (+ x4 0.7564822373) x3) (or (>= (- y3 0.5961060696) y4) (or (>= (- y4 0.4977910105) y3))))) 
(and (or (<= (+ x3 0.0032820532) x5) (or (<= (+ x5 0.7686004875) x3) (or (>= (- y3 0.5961060696) y5) (or (>= (- y5 0.4476713594) y3))))) 
(and (or (<= (+ x3 0.0032820532) x6) (or (<= (+ x6 0.8223684628) x3) (or (>= (- y3 0.5961060696) y6) (or (>= (- y6 0.3841594137) y3))))) 
(and (or (<= (+ x3 0.0032820532) x7) (or (<= (+ x7 0.4518848917) x3) (or (>= (- y3 0.5961060696) y7) (or (>= (- y7 0.3710766186) y3))))) 
(and (or (<= (+ x3 0.0032820532) x8) (or (<= (+ x8 0.032132108) x3) (or (>= (- y3 0.5961060696) y8) (or (>= (- y8 0.2685280837) y3))))) 
(and (or (<= (+ x3 0.0032820532) x9) (or (<= (+ x9 0.806709336) x3) (or (>= (- y3 0.5961060696) y9) (or (>= (- y9 0.2397120295) y3))))) 
(and (or (<= (+ x3 0.0032820532) x10) (or (<= (+ x10 0.0735748048) x3) (or (>= (- y3 0.5961060696) y10) (or (>= (- y10 0.2378823113) y3))))) 
(and (or (<= (+ x3 0.0032820532) x11) (or (<= (+ x11 0.6327906068) x3) (or (>= (- y3 0.5961060696) y11) (or (>= (- y11 0.2143210784) y3))))) 
(and (or (<= (+ x3 0.0032820532) x12) (or (<= (+ x12 0.5222358951) x3) (or (>= (- y3 0.5961060696) y12) (or (>= (- y12 0.1854036082) y3))))) 
(and (or (<= (+ x3 0.0032820532) x13) (or (<= (+ x13 0.8380624857) x3) (or (>= (- y3 0.5961060696) y13) (or (>= (- y13 0.1787777842) y3))))) 
(and (or (<= (+ x3 0.0032820532) x14) (or (<= (+ x14 0.0161547884) x3) (or (>= (- y3 0.5961060696) y14) (or (>= (- y14 0.1474266789) y3))))) 
(and (or (<= (+ x4 0.7564822373) x5) (or (<= (+ x5 0.7686004875) x4) (or (>= (- y4 0.4977910105) y5) (or (>= (- y5 0.4476713594) y4))))) 
(and (or (<= (+ x4 0.7564822373) x6) (or (<= (+ x6 0.8223684628) x4) (or (>= (- y4 0.4977910105) y6) (or (>= (- y6 0.3841594137) y4))))) 
(and (or (<= (+ x4 0.7564822373) x7) (or (<= (+ x7 0.4518848917) x4) (or (>= (- y4 0.4977910105) y7) (or (>= (- y7 0.3710766186) y4))))) 
(and (or (<= (+ x4 0.7564822373) x8) (or (<= (+ x8 0.032132108) x4) (or (>= (- y4 0.4977910105) y8) (or (>= (- y8 0.2685280837) y4))))) 
(and (or (<= (+ x4 0.7564822373) x9) (or (<= (+ x9 0.806709336) x4) (or (>= (- y4 0.4977910105) y9) (or (>= (- y9 0.2397120295) y4))))) 
(and (or (<= (+ x4 0.7564822373) x10) (or (<= (+ x10 0.0735748048) x4) (or (>= (- y4 0.4977910105) y10) (or (>= (- y10 0.2378823113) y4))))) 
(and (or (<= (+ x4 0.7564822373) x11) (or (<= (+ x11 0.6327906068) x4) (or (>= (- y4 0.4977910105) y11) (or (>= (- y11 0.2143210784) y4))))) 
(and (or (<= (+ x4 0.7564822373) x12) (or (<= (+ x12 0.5222358951) x4) (or (>= (- y4 0.4977910105) y12) (or (>= (- y12 0.1854036082) y4))))) 
(and (or (<= (+ x4 0.7564822373) x13) (or (<= (+ x13 0.8380624857) x4) (or (>= (- y4 0.4977910105) y13) (or (>= (- y13 0.1787777842) y4))))) 
(and (or (<= (+ x4 0.7564822373) x14) (or (<= (+ x14 0.0161547884) x4) (or (>= (- y4 0.4977910105) y14) (or (>= (- y14 0.1474266789) y4))))) 
(and (or (<= (+ x5 0.7686004875) x6) (or (<= (+ x6 0.8223684628) x5) (or (>= (- y5 0.4476713594) y6) (or (>= (- y6 0.3841594137) y5))))) 
(and (or (<= (+ x5 0.7686004875) x7) (or (<= (+ x7 0.4518848917) x5) (or (>= (- y5 0.4476713594) y7) (or (>= (- y7 0.3710766186) y5))))) 
(and (or (<= (+ x5 0.7686004875) x8) (or (<= (+ x8 0.032132108) x5) (or (>= (- y5 0.4476713594) y8) (or (>= (- y8 0.2685280837) y5))))) 
(and (or (<= (+ x5 0.7686004875) x9) (or (<= (+ x9 0.806709336) x5) (or (>= (- y5 0.4476713594) y9) (or (>= (- y9 0.2397120295) y5))))) 
(and (or (<= (+ x5 0.7686004875) x10) (or (<= (+ x10 0.0735748048) x5) (or (>= (- y5 0.4476713594) y10) (or (>= (- y10 0.2378823113) y5))))) 
(and (or (<= (+ x5 0.7686004875) x11) (or (<= (+ x11 0.6327906068) x5) (or (>= (- y5 0.4476713594) y11) (or (>= (- y11 0.2143210784) y5))))) 
(and (or (<= (+ x5 0.7686004875) x12) (or (<= (+ x12 0.5222358951) x5) (or (>= (- y5 0.4476713594) y12) (or (>= (- y12 0.1854036082) y5))))) 
(and (or (<= (+ x5 0.7686004875) x13) (or (<= (+ x13 0.8380624857) x5) (or (>= (- y5 0.4476713594) y13) (or (>= (- y13 0.1787777842) y5))))) 
(and (or (<= (+ x5 0.7686004875) x14) (or (<= (+ x14 0.0161547884) x5) (or (>= (- y5 0.4476713594) y14) (or (>= (- y14 0.1474266789) y5))))) 
(and (or (<= (+ x6 0.8223684628) x7) (or (<= (+ x7 0.4518848917) x6) (or (>= (- y6 0.3841594137) y7) (or (>= (- y7 0.3710766186) y6))))) 
(and (or (<= (+ x6 0.8223684628) x8) (or (<= (+ x8 0.032132108) x6) (or (>= (- y6 0.3841594137) y8) (or (>= (- y8 0.2685280837) y6))))) 
(and (or (<= (+ x6 0.8223684628) x9) (or (<= (+ x9 0.806709336) x6) (or (>= (- y6 0.3841594137) y9) (or (>= (- y9 0.2397120295) y6))))) 
(and (or (<= (+ x6 0.8223684628) x10) (or (<= (+ x10 0.0735748048) x6) (or (>= (- y6 0.3841594137) y10) (or (>= (- y10 0.2378823113) y6))))) 
(and (or (<= (+ x6 0.8223684628) x11) (or (<= (+ x11 0.6327906068) x6) (or (>= (- y6 0.3841594137) y11) (or (>= (- y11 0.2143210784) y6))))) 
(and (or (<= (+ x6 0.8223684628) x12) (or (<= (+ x12 0.5222358951) x6) (or (>= (- y6 0.3841594137) y12) (or (>= (- y12 0.1854036082) y6))))) 
(and (or (<= (+ x6 0.8223684628) x13) (or (<= (+ x13 0.8380624857) x6) (or (>= (- y6 0.3841594137) y13) (or (>= (- y13 0.1787777842) y6))))) 
(and (or (<= (+ x6 0.8223684628) x14) (or (<= (+ x14 0.0161547884) x6) (or (>= (- y6 0.3841594137) y14) (or (>= (- y14 0.1474266789) y6))))) 
(and (or (<= (+ x7 0.4518848917) x8) (or (<= (+ x8 0.032132108) x7) (or (>= (- y7 0.3710766186) y8) (or (>= (- y8 0.2685280837) y7))))) 
(and (or (<= (+ x7 0.4518848917) x9) (or (<= (+ x9 0.806709336) x7) (or (>= (- y7 0.3710766186) y9) (or (>= (- y9 0.2397120295) y7))))) 
(and (or (<= (+ x7 0.4518848917) x10) (or (<= (+ x10 0.0735748048) x7) (or (>= (- y7 0.3710766186) y10) (or (>= (- y10 0.2378823113) y7))))) 
(and (or (<= (+ x7 0.4518848917) x11) (or (<= (+ x11 0.6327906068) x7) (or (>= (- y7 0.3710766186) y11) (or (>= (- y11 0.2143210784) y7))))) 
(and (or (<= (+ x7 0.4518848917) x12) (or (<= (+ x12 0.5222358951) x7) (or (>= (- y7 0.3710766186) y12) (or (>= (- y12 0.1854036082) y7))))) 
(and (or (<= (+ x7 0.4518848917) x13) (or (<= (+ x13 0.8380624857) x7) (or (>= (- y7 0.3710766186) y13) (or (>= (- y13 0.1787777842) y7))))) 
(and (or (<= (+ x7 0.4518848917) x14) (or (<= (+ x14 0.0161547884) x7) (or (>= (- y7 0.3710766186) y14) (or (>= (- y14 0.1474266789) y7))))) 
(and (or (<= (+ x8 0.032132108) x9) (or (<= (+ x9 0.806709336) x8) (or (>= (- y8 0.2685280837) y9) (or (>= (- y9 0.2397120295) y8))))) 
(and (or (<= (+ x8 0.032132108) x10) (or (<= (+ x10 0.0735748048) x8) (or (>= (- y8 0.2685280837) y10) (or (>= (- y10 0.2378823113) y8))))) 
(and (or (<= (+ x8 0.032132108) x11) (or (<= (+ x11 0.6327906068) x8) (or (>= (- y8 0.2685280837) y11) (or (>= (- y11 0.2143210784) y8))))) 
(and (or (<= (+ x8 0.032132108) x12) (or (<= (+ x12 0.5222358951) x8) (or (>= (- y8 0.2685280837) y12) (or (>= (- y12 0.1854036082) y8))))) 
(and (or (<= (+ x8 0.032132108) x13) (or (<= (+ x13 0.8380624857) x8) (or (>= (- y8 0.2685280837) y13) (or (>= (- y13 0.1787777842) y8))))) 
(and (or (<= (+ x8 0.032132108) x14) (or (<= (+ x14 0.0161547884) x8) (or (>= (- y8 0.2685280837) y14) (or (>= (- y14 0.1474266789) y8))))) 
(and (or (<= (+ x9 0.806709336) x10) (or (<= (+ x10 0.0735748048) x9) (or (>= (- y9 0.2397120295) y10) (or (>= (- y10 0.2378823113) y9))))) 
(and (or (<= (+ x9 0.806709336) x11) (or (<= (+ x11 0.6327906068) x9) (or (>= (- y9 0.2397120295) y11) (or (>= (- y11 0.2143210784) y9))))) 
(and (or (<= (+ x9 0.806709336) x12) (or (<= (+ x12 0.5222358951) x9) (or (>= (- y9 0.2397120295) y12) (or (>= (- y12 0.1854036082) y9))))) 
(and (or (<= (+ x9 0.806709336) x13) (or (<= (+ x13 0.8380624857) x9) (or (>= (- y9 0.2397120295) y13) (or (>= (- y13 0.1787777842) y9))))) 
(and (or (<= (+ x9 0.806709336) x14) (or (<= (+ x14 0.0161547884) x9) (or (>= (- y9 0.2397120295) y14) (or (>= (- y14 0.1474266789) y9))))) 
(and (or (<= (+ x10 0.0735748048) x11) (or (<= (+ x11 0.6327906068) x10) (or (>= (- y10 0.2378823113) y11) (or (>= (- y11 0.2143210784) y10))))) 
(and (or (<= (+ x10 0.0735748048) x12) (or (<= (+ x12 0.5222358951) x10) (or (>= (- y10 0.2378823113) y12) (or (>= (- y12 0.1854036082) y10))))) 
(and (or (<= (+ x10 0.0735748048) x13) (or (<= (+ x13 0.8380624857) x10) (or (>= (- y10 0.2378823113) y13) (or (>= (- y13 0.1787777842) y10))))) 
(and (or (<= (+ x10 0.0735748048) x14) (or (<= (+ x14 0.0161547884) x10) (or (>= (- y10 0.2378823113) y14) (or (>= (- y14 0.1474266789) y10))))) 
(and (or (<= (+ x11 0.6327906068) x12) (or (<= (+ x12 0.5222358951) x11) (or (>= (- y11 0.2143210784) y12) (or (>= (- y12 0.1854036082) y11))))) 
(and (or (<= (+ x11 0.6327906068) x13) (or (<= (+ x13 0.8380624857) x11) (or (>= (- y11 0.2143210784) y13) (or (>= (- y13 0.1787777842) y11))))) 
(and (or (<= (+ x11 0.6327906068) x14) (or (<= (+ x14 0.0161547884) x11) (or (>= (- y11 0.2143210784) y14) (or (>= (- y14 0.1474266789) y11))))) 
(and (or (<= (+ x12 0.5222358951) x13) (or (<= (+ x13 0.8380624857) x12) (or (>= (- y12 0.1854036082) y13) (or (>= (- y13 0.1787777842) y12))))) 
(and (or (<= (+ x12 0.5222358951) x14) (or (<= (+ x14 0.0161547884) x12) (or (>= (- y12 0.1854036082) y14) (or (>= (- y14 0.1474266789) y12))))) 
(and (or (<= (+ x13 0.8380624857) x14) (or (<= (+ x14 0.0161547884) x13) (or (>= (- y13 0.1787777842) y14) (or (>= (- y14 0.1474266789) y13))))) )))))))))))))))))))))))))))))))))))))))))))))))))))))))))))))))))))))))))))))))))))))))))))))))))))))))))))))))))))))))))))))))))))))))))))))))))))))))))))))))))))))))))))))))))))))))))))))))))))))))))))))))))))))))
(minimize c)
(check-sat)
(get-objectives)
(exit)
